c
c sat or unsat = sat
c variables = 30
c clauses = 87
c
c Randomly generated 3-SAT formula
p cnf 30 87
 1  -5  9 0
-2  10 -15 0
 3  -8  20 0
-4  7  -18 0
 5  -11  14 0
-6  9  -21 0
 7  -13  22 0
-8  15  -26 0
 9  -16  27 0
-10  18  -28 0
 11  -19  29 0
-12  20  -30 0
 13  -21  1 0
-14  22  -2 0
 15  -23  3 0
-16  24  -4 0
 17  -25  5 0
-18  26  -6 0
 19  -27  7 0
-20  28  -8 0
 21  -29  9 0
-22  30  -10 0
 23  -1  11 0
-24  2  -12 0
 25  -3  13 0
-26  4  -14 0
 27  -5  15 0
-28  6  -16 0
 29  -7  17 0
-30  8  -18 0
 1  9  19 0
-2  -10  20 0
 3  11  -21 0
-4  -12  22 0
 5  13  -23 0
-6  -14  24 0
 7  15  -25 0
-8  -16  26 0
 9  17  -27 0
-10  -18  28 0
 11  19  -29 0
-12  -20  30 0
 13  21  -1 0
-14  -22  2 0
 15  23  -3 0
-16  -24  4 0
 17  25  -5 0
-18  -26  6 0
 19  27  -7 0
-20  -28  8 0
 21  29  -9 0
-22  -30  10 0
 23  1  -11 0
-24  -2  12 0
 25  3  -13 0
-26  -4  14 0
 27  5  -15 0
-28  -6  16 0
 29  7  -17 0
-30  -8  18 0
 1  -19  20 0
-2  21  -22 0
 3  -23  24 0
-4  25  -26 0
 5  -27  28 0
-6  29  -30 0
 7  -1  2 0
-8  3  -4 0
 9  -5  6 0
-10  7  -8 0
 11  -9  10 0
-12  13  -14 0
 15  -16  17 0
-18  19  -20 0
 21  -22  23 0
-24  25  -26 0
27  -28  29 0
-30  1  -2 0
3  -4  5 0
-6  7  -8 0
9  -10  11 0
-12  13  -14 0
15  -16  17 0
-18  19  -20 0
21  -22  23 0
-24  25  -26 0
27  -28  29 0
-30  1  -3 0